benchmark_num_str/p1_3_10-4.dzn
Alphabet = {A,C,G,T};
ns = 3;
nc = 10;
sl = 10;
neighbours = [| I(A),I(C),I(A),I(C),I(A),I(C),I(A),I(C),I(A),I(A) | I(C),I(A),I(A),I(A),I(C),I(A),I(C),I(A),I(A),I(A) | I(A),I(A),I(A),I(A),I(C),I(A),I(A),I(A),I(A),I(A) |];
