benchmark_num_str/p1_3_10-4.txt
{
	"num_strings": 3,
	"alphabet": "ACGT",
	"strings": [
		"ACACACACAA",
		"CAAACACAAA",
		"AAAACAAAAA"
	],
	"str_length":[10,10,10]
}